\ Model GLayoutQuality_copy
\ LP format - for model browsing. Use MPS format to capture full model detail.
Minimize
  0 EdgeDistance[x0,0,0]
Subject To
Bounds
 EdgeDistance[x0,0,0] >= 1e+100
Generals
 EdgeDistance[x0,0,0]
End
